solving instance uflp nldep holmberg 46 sinabc1
Set parameter TokenServer to value "licences.gerad.lan"
Set parameter MIPGap to value 1e-06
Set parameter FuncPieceError to value 1e-06
Set parameter Threads to value 1
Set parameter FuncPieces to value -2
Set parameter TimeLimit to value 3600
Gurobi Optimizer version 12.0.2 build v12.0.2rc0 (linux64 - "AlmaLinux 9.6 (Sage Margay)")

CPU model: Intel(R) Xeon(R) Gold 6258R CPU @ 2.70GHz, instruction set [SSE2|AVX|AVX2|AVX512]
Thread count: 56 physical cores, 56 logical processors, using up to 1 threads

Non-default parameters:
TimeLimit  3600
MIPGap  1e-06
Threads  1
FuncPieces  -2
FuncPieceError  1e-06

Optimize a model with 2290 rows, 2310 columns and 8640 nonzeros
Model fingerprint: 0x84ea0d7d
Model has 60 function constraints treated as nonlinear
  30 POW, 30 SIN
Variable types: 2280 continuous, 30 integer (30 binary)
Coefficient statistics:
  Matrix range     [8e-04, 1e+02]
  Objective range  [1e+00, 4e+02]
  Bounds range     [1e+00, 1e+10]
  RHS range        [1e+00, 1e+00]
Warning: Model contains large bounds
         Consider reformulating model or setting NumericFocus parameter
         to avoid numerical issues.
Presolve removed 2160 rows and 120 columns
Presolve time: 0.00s
Presolved: 280 rows, 2191 columns, 4620 nonzeros
Presolved model has 30 quadratic objective terms
Presolved model has 30 nonlinear constraint(s)

Solving non-convex MINLP

Variable types: 2191 continuous, 0 integer (0 binary)
Found heuristic solution: objective 1448.7564346

Root relaxation: objective 1.423368e+03, 316 iterations, 0.00 seconds (0.00 work units)

    Nodes    |    Current Node    |     Objective Bounds      |     Work
 Expl Unexpl |  Obj  Depth IntInf | Incumbent    BestBd   Gap | It/Node Time

     0     0 1423.36843    0   28 1448.75643 1423.36843  1.75%     -    0s
     0     0 1448.63276    0   28 1448.75643 1448.63276  0.01%     -    0s
     0     0 1448.75416    0    7 1448.75643 1448.75416  0.00%     -    0s
H    0     0                    1448.7564310 1448.75416  0.00%     -    0s
     0     2 1448.75584    0    2 1448.75643 1448.75584  0.00%     -    0s

Explored 1 nodes (433 simplex iterations) in 0.18 seconds (0.07 work units)
Thread count was 1 (of 56 available processors)

Solution count 1: 1448.76 

Optimal solution found (tolerance 1.00e-06)
Best objective 1.448756431030e+03, best bound 1.448755841200e+03, gap 0.0000%

User-callback calls 363, time in user-callback 0.00 sec
reading holmberg data file ../../../../../instances/uflp/holmberg/p46
primal_bound = 1448.7564310300147, dual_bound = 1448.755841200091, gap = 4.0712842479942226e-5, time = 0.19
OPTIMAL LOCATIONS:
y[1] = 1.0
y[2] = 1.0
y[3] = 1.0
y[4] = 1.0
y[5] = 1.0
y[6] = 1.0
y[7] = 1.0
y[8] = 1.0
y[9] = 1.0
y[10] = 1.0
y[11] = 1.0
y[12] = 1.0
y[13] = 1.0
y[14] = 1.0
y[15] = 1.0
y[16] = 1.0
y[17] = 1.0
y[18] = 1.0
y[19] = 1.0
y[20] = 1.0
y[21] = 1.0
y[22] = 1.0
y[23] = 1.0
y[24] = 1.0
y[25] = 1.0
y[26] = 1.0
y[27] = 1.0
y[28] = 1.0
y[29] = 1.0
y[30] = 1.0
OPTIMAL WAREHOUSING:
f[1] = 50.0
f[2] = 80.0
f[3] = 80.0
f[4] = 70.0
f[5] = 30.0
f[6] = 40.0
f[7] = 20.0
f[8] = 43.61120455215957
f[9] = 66.38879544784044
f[10] = 30.0
f[11] = 110.0
f[12] = 70.0
f[13] = 38.0
f[14] = 44.0
f[15] = 23.0
f[16] = 48.0
f[17] = 21.0
f[18] = 39.0
f[19] = 45.0
f[20] = 28.0
f[22] = 20.0
f[23] = 22.0
f[25] = 43.0
f[26] = 31.0
f[27] = 27.0
f[28] = 37.0
f[29] = 51.0
f[30] = 39.0
OPTIMAL WAREHOUSING COSTS:
nlobj[1] = 1.3656394173496655
nlobj[2] = 3.1333302475504734
nlobj[3] = 4.421139119521056
nlobj[4] = 3.3878434101270183
nlobj[5] = 0.6966376286279354
nlobj[6] = 0.9583468663065394
nlobj[7] = 0.25692191130952813
nlobj[8] = 1.4078889280252593
nlobj[9] = 2.146303817193919
nlobj[10] = 0.44487536448313747
nlobj[11] = 7.758207988394297
nlobj[12] = 3.3723028440255183
nlobj[13] = 0.6929060002762049
nlobj[14] = 1.1593766393615388
nlobj[15] = 0.26322535526942586
nlobj[16] = 1.4014176428615797
nlobj[17] = 0.30638649558387815
nlobj[18] = 1.0101515501113647
nlobj[19] = 1.5632088587843944
nlobj[20] = 0.5844578664305765
nlobj[21] = 0.0
nlobj[22] = 0.20223061335749987
nlobj[23] = 0.33163589617898265
nlobj[24] = 0.0
nlobj[25] = 1.292376534337966
nlobj[26] = 0.736191359550006
nlobj[27] = 0.5237740072076569
nlobj[28] = 0.9832426728601157
nlobj[29] = 1.2761781602407847
nlobj[30] = 1.080233834688469
OPTIMAL ASSIGNMENTS:
x[1, 2] = 1.0
x[1, 6] = 1.0
x[2, 8] = 1.0
x[2, 9] = 1.0
x[2, 10] = 1.0
x[2, 11] = 1.0
x[3, 16] = 1.0
x[3, 19] = 1.0
x[3, 21] = 1.0
x[3, 36] = 1.0
x[4, 17] = 1.0
x[4, 18] = 1.0
x[4, 20] = 1.0
x[4, 37] = 1.0
x[5, 22] = 1.0
x[5, 23] = 1.0
x[6, 24] = 1.0
x[6, 27] = 1.0
x[7, 25] = 1.0
x[7, 26] = 1.0
x[8, 28] = 1.0
x[8, 29] = 1.0
x[8, 31] = 0.453706818405319
x[9, 30] = 1.0
x[9, 31] = 0.546293181594681
x[9, 32] = 1.0
x[10, 33] = 1.0
x[10, 34] = 1.0
x[11, 1] = 1.0
x[11, 3] = 1.0
x[11, 4] = 1.0
x[11, 5] = 1.0
x[11, 7] = 1.0
x[11, 35] = 1.0
x[12, 12] = 1.0
x[12, 13] = 1.0
x[12, 14] = 1.0
x[12, 15] = 1.0
x[13, 42] = 1.0
x[13, 70] = 1.0
x[14, 53] = 1.0
x[14, 57] = 1.0
x[14, 68] = 1.0
x[15, 46] = 1.0
x[15, 67] = 1.0
x[16, 62] = 1.0
x[16, 69] = 1.0
x[17, 49] = 1.0
x[18, 38] = 1.0
x[18, 48] = 1.0
x[19, 47] = 1.0
x[19, 58] = 1.0
x[19, 59] = 1.0
x[19, 64] = 1.0
x[20, 61] = 1.0
x[22, 43] = 1.0
x[23, 44] = 1.0
x[23, 54] = 1.0
x[25, 39] = 1.0
x[25, 45] = 1.0
x[25, 60] = 1.0
x[26, 55] = 1.0
x[27, 56] = 1.0
x[27, 65] = 1.0
x[28, 52] = 1.0
x[28, 66] = 1.0
x[29, 40] = 1.0
x[29, 50] = 1.0
x[29, 63] = 1.0
x[30, 41] = 1.0
x[30, 51] = 1.0
fixed costs = 12021.0
assignment costs = 1406.0
warehousing costs = 42.75643103001478
total cost = 1448.7564310300147
